benchmarks/crosswords/mzn/crossword3_49.ozn
output ([(((("\n"++problem_name)++"\n")++"L:")++show(L))++"\n"]++[if problem[i,j]==0 then "*" else show(letters[fix(L[problem[i,j]])]) endif++if j==cols then "\n" else "" endif | i in 1..rows, j in 1..cols, ])++["\n"];
int: rows = 23;
int: cols = 23;
array [1..rows,1..cols] of int: problem = [|1,2,3,4,5,6,0,7,8,9,10,11,12,0,13,14,15,0,16,17,18,19,20|21,22,23,24,25,26,0,27,28,29,30,31,32,0,33,34,35,36,37,38,39,40,41|42,43,44,45,46,47,48,49,50,51,52,53,54,0,55,56,57,58,59,60,61,62,63|64,65,66,0,67,68,69,70,71,72,73,74,0,75,76,77,78,79,80,0,81,82,83|84,85,86,87,88,0,89,90,91,92,93,0,94,95,96,97,98,0,99,100,101,102,103|104,105,106,107,0,108,109,110,111,112,0,113,114,115,116,117,118,119,0,120,121,122,0|0,0,123,124,125,126,0,127,128,129,130,131,132,133,134,135,0,136,137,138,139,140,141|142,143,144,145,146,147,148,0,149,150,151,152,153,154,155,0,156,157,158,159,160,161,162|163,164,165,166,167,168,169,170,0,171,172,173,174,175,0,176,177,178,179,180,181,182,183|184,185,186,187,188,189,190,191,192,0,193,194,195,0,196,197,198,199,200,201,0,0,0|202,203,204,205,206,0,207,208,209,210,211,212,0,213,214,215,216,217,218,0,219,220,221|222,223,224,225,0,226,227,228,229,230,231,0,232,233,234,235,236,237,0,238,239,240,241|242,243,244,0,245,246,247,248,249,250,0,251,252,253,254,255,256,0,257,258,259,260,261|0,0,0,262,263,264,265,266,267,0,268,269,270,0,271,272,273,274,275,276,277,278,279|280,281,282,283,284,285,286,287,0,288,289,290,291,292,0,293,294,295,296,297,298,299,300|301,302,303,304,305,306,307,0,308,309,310,311,312,313,314,0,315,316,317,318,319,320,321|322,323,324,325,326,327,0,328,329,330,331,332,333,334,335,336,0,337,338,339,340,0,0|0,341,342,343,0,344,345,346,347,348,349,350,0,351,352,353,354,355,0,356,357,358,359|360,361,362,363,364,0,365,366,367,368,369,0,370,371,372,373,374,0,375,376,377,378,379|380,381,382,0,383,384,385,386,387,388,0,389,390,391,392,393,394,395,396,0,397,398,399|400,401,402,403,404,405,406,407,408,0,409,410,411,412,413,414,415,416,417,418,419,420,421|422,423,424,425,426,427,428,429,430,0,431,432,433,434,435,436,0,437,438,439,440,441,442|443,444,445,446,447,0,448,449,450,0,451,452,453,454,455,456,0,457,458,459,460,461,462|];
int: num_letters = 26;
array [1..num_letters] of string: letters = ["a","b","c","d","e","f","g","h","i","j","k","l","m","n","o","p","q","r","s","t","u","v","w","x","y","z"];
int: N = 462;
array [0..N] of int: L;
string: problem_name = "23.10, 23 x 23";
